(set-logic QF_UF)
(declare-fun A0 () Bool)
(declare-fun A1 () Bool)
(declare-fun A2 () Bool)
(declare-fun A3 () Bool)
(declare-fun A5 () Bool)
(declare-fun A6 () Bool)
(declare-fun A7 () Bool)
(declare-fun A8 () Bool)
(declare-fun A9 () Bool)
(declare-fun A10 () Bool)
(declare-fun A11 () Bool)
(declare-fun A12 () Bool)
(declare-fun A13 () Bool)
(declare-fun A14 () Bool)
(declare-fun A15 () Bool)
(declare-fun A16 () Bool)
(declare-fun A17 () Bool)
(declare-fun A18 () Bool)
(declare-fun A19 () Bool)
(declare-fun A21 () Bool)
(declare-fun A23 () Bool)
(declare-fun A24 () Bool)
(assert (let ((.def_0 (not A12))) (let ((.def_1 (not A8))) (let ((.def_2 (= .def_1 .def_0))) (let ((.def_3 (not A21))) (let ((.def_4 (not A1))) (let ((.def_5 (or .def_4 .def_3))) (let ((.def_6 (not .def_5))) (let ((.def_7 (or .def_6 .def_2))) (let ((.def_8 (not .def_7))) (let ((.def_9 (or A7 .def_3))) (let ((.def_10 (not .def_9))) (let ((.def_11 (or A2 A12))) (let ((.def_12 (not .def_11))) (let ((.def_13 (or .def_12 .def_10))) (let ((.def_14 (not .def_13))) (let ((.def_15 (and .def_14 .def_8))) (let ((.def_16 (not .def_15))) (let ((.def_17 (not A0))) (let ((.def_18 (or .def_17 .def_17))) (let ((.def_19 (not A9))) (let ((.def_20 (and A11 .def_19))) (let ((.def_21 (not .def_20))) (let ((.def_22 (= .def_21 .def_18))) (let ((.def_23 (not .def_22))) (let ((.def_24 (not A17))) (let ((.def_25 (or .def_24 A24))) (let ((.def_26 (not .def_25))) (let ((.def_27 (and A21 A2))) (let ((.def_28 (or .def_27 .def_26))) (let ((.def_29 (or .def_28 .def_23))) (let ((.def_30 (and .def_29 .def_16))) (let ((.def_31 (not .def_30))) (let ((.def_32 (not A11))) (let ((.def_33 (= A16 .def_32))) (let ((.def_34 (and A23 A18))) (let ((.def_35 (not .def_34))) (let ((.def_36 (and .def_35 .def_33))) (let ((.def_37 (not A24))) (let ((.def_38 (not A13))) (let ((.def_39 (= .def_38 .def_37))) (let ((.def_40 (not .def_39))) (let ((.def_41 (and A10 A11))) (let ((.def_42 (or .def_41 .def_40))) (let ((.def_43 (or .def_42 .def_36))) (let ((.def_44 (not .def_43))) (let ((.def_45 (and A18 A1))) (let ((.def_46 (not .def_45))) (let ((.def_47 (= A3 A3))) (let ((.def_48 (and .def_47 .def_46))) (let ((.def_49 (not .def_48))) (let ((.def_50 (not A6))) (let ((.def_51 (or .def_50 .def_4))) (let ((.def_52 (not A14))) (let ((.def_53 (or .def_52 .def_38))) (let ((.def_54 (not .def_53))) (let ((.def_55 (and .def_54 .def_51))) (let ((.def_56 (not .def_55))) (let ((.def_57 (or .def_56 .def_49))) (let ((.def_58 (not .def_57))) (let ((.def_59 (and .def_58 .def_44))) (let ((.def_60 (not .def_59))) (let ((.def_61 (or .def_60 .def_31))) (let ((.def_62 (not .def_61))) (let ((.def_63 (not A5))) (let ((.def_64 (and A9 .def_63))) (let ((.def_65 (or .def_52 A3))) (let ((.def_66 (not .def_65))) (let ((.def_67 (and .def_66 .def_64))) (let ((.def_68 (and A7 A10))) (let ((.def_69 (and .def_37 A14))) (let ((.def_70 (not .def_69))) (let ((.def_71 (or .def_70 .def_68))) (let ((.def_72 (and .def_71 .def_67))) (let ((.def_73 (not A16))) (let ((.def_74 (or .def_73 .def_19))) (let ((.def_75 (or A15 A14))) (let ((.def_76 (not .def_75))) (let ((.def_77 (and .def_76 .def_74))) (let ((.def_78 (= .def_63 .def_1))) (let ((.def_79 (= .def_4 A18))) (let ((.def_80 (not .def_79))) (let ((.def_81 (or .def_80 .def_78))) (let ((.def_82 (or .def_81 .def_77))) (let ((.def_83 (= .def_82 .def_72))) (let ((.def_84 (not .def_83))) (let ((.def_85 (or A8 A8))) (let ((.def_86 (and .def_32 A15))) (let ((.def_87 (and .def_86 .def_85))) (let ((.def_88 (not .def_87))) (let ((.def_89 (= A2 A23))) (let ((.def_90 (or .def_24 A18))) (let ((.def_91 (not .def_90))) (let ((.def_92 (= .def_91 .def_89))) (let ((.def_93 (and .def_92 .def_88))) (let ((.def_94 (or .def_3 A13))) (let ((.def_95 (not .def_94))) (let ((.def_96 (= A0 A23))) (let ((.def_97 (not .def_96))) (let ((.def_98 (and .def_97 .def_95))) (let ((.def_99 (not .def_98))) (let ((.def_100 (or A6 .def_0))) (let ((.def_101 (not .def_100))) (let ((.def_102 (not A19))) (let ((.def_103 (= .def_102 A21))) (let ((.def_104 (or .def_103 .def_101))) (let ((.def_105 (and .def_104 .def_99))) (let ((.def_106 (not .def_105))) (let ((.def_107 (or .def_106 .def_93))) (let ((.def_108 (or .def_107 .def_84))) (let ((.def_109 (or .def_108 .def_62))) (let ((.def_110 (not .def_109))) .def_110))))))))))))))))))))))))))))))))))))))))))))))))))))))))))))))))))))))))))))))))))))))))))))))))))))))))))))))))
(check-sat)
